!pal6 tightscf STO-3G m06l ri defgrid3 d3zero
%method
   D3S6 1.0000
   D3RS6 1.2170
   D3S8 0.7220
   D3ALPHA6 14.0
end
#B(hashtag)[PH]
*xyz 0 2 
B   2.115400000   0.003500000   0.000000000
P  -0.380900000  -0.009900000   0.000000000
H  -1.734400000   0.006400000   0.000000000
*