!pal6 cpcm(water) sapporo-qzp-2012 uhf opt tightopt noautostart
%geom
Constraints
{B 0 1 1.03 C}
{B 0 2 1.03 C}
{B 1 2 1.66 C}
end
end
#[NH2]
*xyz 0 2 
N  -0.000000000   0.400600000   0.000000000
H  -0.831600000  -0.200300000   0.000000000
H   0.831600000  -0.200300000   0.000000000
*