!pal6 tightscf STO-3G steom-dlpno-ccsd rhf tightpno autoaux
%scf ConvForced true end
%mdci
nroots 9
doDbFilter true
dorootwise true
locRandom 0
end
#s1ss1
*xyz 0 1 
S  -1.045500000  -0.554800000   0.000000000
S   1.003200000  -0.628000000  -0.000000000
S   0.042200000   1.182800000  -0.000000000
*