!pal6 pc-2 rhf rijonx autoaux gdiis-opt verytightopt noautostart
%geom
Scan
B 0 1 = 1.88, 3.77, 5
end
Constraints
{B 0 1 1.88 C}
end
end
#P(hashtag)P
*xyz 0 1 
P   0.942100000   0.000000000   0.000000000
P  -0.942100000   0.000000000   0.000000000
*