!pal6 STO-3G rhf rijcosx autoaux

#ClCl
*xyz 0 1 
Cl   1.010000000   0.000000000   0.000000000
Cl  -1.010000000   0.000000000   0.000000000
*