!pal6 tightscf STO-3G rsx-0dh nocosx rhf d3
%method
   D3s6 0.61
   D3s8 0
   D3a1 0
   D3a2 6.2
end
#O=P(hashtag)P
*xyz 0 1 
O   0.000000000   0.000000000   0.000000000
P   1.299000000   0.750000000   0.000000000
P   2.598100000   1.500000000   0.000000000
*