!pal6 STO-3G uhf rijcosx autoaux
%cis
nroots 9
iroot 1
upop true
nacme true
etf true
end
%scf convforced true end
#[BH2]
*xyz 0 2 
B  -0.001200000   0.386800000   0.000000000
H  -1.019500000  -0.193700000   0.000000000
H   1.020700000  -0.193000000   0.000000000
*