!pal6 tightscf STO-3G qcisd-f12/ri uhf uno autoaux cc-pvqz-f12-optri copt normalopt noautostart numgrad
%scf ConvForced true end
%mdci
locRandom 0
UseQROs true
end

#[SH]
*xyz 0 2 
S   0.676600000   0.000000000   0.000000000
H  -0.676600000   0.000000000   0.000000000
*