!pal6 tightscf STO-3G ri-qcisd rhf autoaux opt verytightopt noautostart numgrad
%scf ConvForced true end
%mdci
locRandom 0
end
%geom
Constraints
{B 0 1 1.19 C}
{B 0 2 1.72 C}
{B 1 2 1.72 C}
end
end
#C1(hashtag)CS1
*xyz 0 1 
C   0.538700000   0.597400000   0.000000000
C   0.538700000  -0.597400000  -0.000000000
S  -1.077400000   0.000000000  -0.000000000
*