!pal6 STO-3G rhf rijdx autoaux gdiis-opt optts noautostart
%geom
Constraints
{B 0 1 1.92 C}
{B 0 2 3.24 C}
{B 1 2 1.32 C}
end
end
#B(hashtag)CF
*xyz 0 1 
B   1.719400000   0.001200000   0.000000000
C  -0.201300000  -0.002900000   0.000000000
F  -1.518100000   0.001700000   0.000000000
*