!pal6 STO-3G rhf gdiis-copt tightopt noautostart

#FCl
*xyz 0 1 
F   0.814300000   0.000000000   0.000000000
Cl  -0.814300000   0.000000000   0.000000000
*