!pal6 tightscf STO-3G glyp rijonx defgrid1 rhf autoaux autoaux
%mp2 Density unrelaxed end
%tddft
nroots 9
upop true
end
%scf convforced true end
#C1=S=S=1
*xyz 0 1 
C   0.000000000  -0.840100000  -0.000000000
S  -1.106400000   0.420100000  -0.000000000
S   1.106400000   0.420100000  -0.000000000
*