!pal6 tightscf STO-3G wb97x-d3bj defgrid1 uhf gdiis-opt tightopt noautostart
%geom
Scan
B 1 2 = 1.34, 2.68, 5
end
end
#S=[SH]
*xyz 0 2 
S   1.490600000  -0.180600000   0.000000000
S  -0.390400000   0.659200000   0.000000000
H  -1.100200000  -0.478600000   0.000000000
*