!uks pbe opt def2-tzvpp autoaux ri uno uco nofinalgrid d3bj defgrid3
%pal nprocs 32
end
%maxcore 7500
%scf
maxiter 500
end
#[nh]f
*xyz 0 2 
n  -0.171500000   0.447300000   0.000000000
f   1.064100000  -0.164900000   0.000000000
h  -0.892600000  -0.282500000   0.000000000
*