!uks bp d3bj def2-svp ri def2/j uno uco
%cpcm
   epsilon 4.000
end
#[ch]=o
*xyz 0 2 
c  -0.037000000  -0.000000000   0.000000000
o   1.139000000   0.000000000   0.000000000
h  -1.102000000   0.000000000   0.000000000
*