! bp86 def2-tzvp d3bj def2/j tightscf opt nofinalgrid defgrid3
#fs
*xyz 0 1 
f   1.181800000  -0.251600000   0.000000000
s  -0.147400000   0.628600000   0.000000000
h  -1.034500000  -0.377000000   0.000000000
*