! uks b3lyp tzvp tzvp/j tightscf nofinalgrid  defgrid3
%method
specialgridatoms 26
specialgridintacc 7
end
#[bh]f
*xyz 0 2 
b  -0.117700000   0.437200000   0.000000000
f   1.189900000  -0.184500000   0.000000000
h  -1.072100000  -0.252700000   0.000000000
*
%eprnmr 
nuclei = all fe {fgrad, rho}
end