! uks b3lyp d3bj def2-tzvpp def2-tzvpp/j rijcosx usesym tightscf noautostart normalprint xyzfile pal18
! opt numfreq 
%method 
symthresh 5.0e-2 
end
%base"opt_fe_iii_ls_b3lyp_def2tzvpp_d3"
#b(hashtag)[ph]
*xyz 0 2 
b   2.115400000   0.003500000   0.000000000
p  -0.380900000  -0.009900000   0.000000000
h  -1.734400000   0.006400000   0.000000000
*