!uks b3lyp opt freq 6-31g(d) autoaux rijcosx uno uco nofinalgrid nofinalgridx d3bj usesym  defgrid3
%pal nprocs 32
end
%maxcore 7500
%scf
maxiter 500
end
%method symthresh 5.0e-2 
end
#[oh]
*xyz 0 2 
o   0.488900000   0.000000000   0.000000000
h  -0.488900000   0.000000000   0.000000000
*