! uks b3lyp sv(p) tightscf freq slowconv
#[nh2]
*xyz 0 2 
n  -0.000000000   0.400600000   0.000000000
h  -0.831600000  -0.200300000   0.000000000
h   0.831600000  -0.200300000   0.000000000
*