! b3lyp rijk def2-tzvpp def2/jk nmr 
#c1=c=s=1
*xyz 0 1 
c   0.538700000   0.597400000  -0.000000000
c   0.538700000  -0.597400000   0.000000000
s  -1.077400000   0.000000000  -0.000000000
*