!rks b3lyp d3bj def2-svp rijcosx def2/j tightscf nofinalgrid optts freq defgrid3
%pal nprocs 8 end
%maxcore 4000
%scf maxiter 1000 end
%geom maxiter 500
      inhess read
      inhessname "p142-frq-rks.hess"
      ts_search ef
      trust 0.3
      ts_mode {m 0} end
end
#b1=s=b1
*xyz 0 1 
b  -0.815300000  -0.389400000   0.000000000
s  -0.106300000   0.658000000   0.000000000
b   0.921600000  -0.268600000   0.000000000
*