! freq pbeh-3c rijcosx cpcm(acetonitrile) 
%freq
scalfreq 0.95
end
%cpcm
surfacetype vdw_gaussian
end
%output 
xyzfile=true 
end 
%scf 
maxiter 250 
end
%output
print[p_hirshfeld] = 1
end
% maxcore
3000
%pal nprocs 16
end
#c1(hashtag)s(hashtag)c1
*xyz 0 1 
c   0.511400000  -0.756500000   0.000000000
s  -1.022700000   0.000000000   0.000000000
c   0.511400000   0.756500000   0.000000000
*