!pal6 ccsd def2-svp
%qmmm
Embedding Electrostatic # Electrostatic (Default)
# Mechanical
end
#[OH]
*xyz 0 2 
O   0.488900000   0.000000000   0.000000000
H  -0.488900000   0.000000000   0.000000000
*