!pal6 bp86 svp tightscf
%mp2
StoreDLPNOData true
PAOOverlapThresh 1e-5
TScalePNO_LShift 0.1
end
#[BH2]
*xyz 0 2 
B  -0.001200000   0.386800000   0.000000000
H  -1.019500000  -0.193700000   0.000000000
H   1.020700000  -0.193000000   0.000000000
*