!pal6 tightscf conv bohrs
%elprop Polar 3
EField 1e-5
end
#[SH]
*xyz 0 2 
S   0.676600000   0.000000000   0.000000000
H  -0.676600000   0.000000000   0.000000000
*