!pal6 rhf def2-svpd def2-svp/c
%method
D3S6 1.0
D3RS6 1.094
D3S8 1.682
D3alpha6 14
end
#[PH2]
*xyz 0 2 
P  -0.000000000   0.641500000   0.000000000
H   1.048300000  -0.320800000   0.000000000
H  -1.048300000  -0.320800000   0.000000000
*