!pal6 uhf svp tightscf
%mdci
NRoots 9 # Number of excited states
DoDbfilter true # Remove doubly excited states
end
#O=O
*xyz 0 1 
O   0.570800000   0.000000000   0.000000000
O  -0.570800000   0.000000000   0.000000000
*