!pal6 b3lyp def2-svp tightscf
%method
SpecialGridAtoms 26 #Increase the radial integration accuracy on Fe
SpecialGridIntAcc 7 #Requested radial integration accuracy values
end
#P(hashtag)P
*xyz 0 1 
P   0.942100000   0.000000000   0.000000000
P  -0.942100000   0.000000000   0.000000000
*