!pal6 aug-cc-pvtz extremescf
%qmmm
QM2CustomFile "myQM2Method.txt" # File should be available in working directory.
end
#N=S
*xyz 0 1 
N  -0.321600000   0.466600000   0.000000000
S   1.285600000  -0.133300000   0.000000000
H  -0.964000000  -0.333400000   0.000000000
*