!pal6 rhf sto-3g tightscf smallprint
%rocis NRoots 3
OrbWin = 1,13,9,22
end
#C1(hashtag)S(hashtag)C1
*xyz 0 1 
C   0.511400000  -0.756500000   0.000000000
S  -1.022700000   0.000000000   0.000000000
C   0.511400000   0.756500000   0.000000000
*