!pal6 uks b3lyp sv(p) tightscf opt slowconv
%freq Temp 290, 295, 300 # in Kelvin
Pressure 1.0, 2.0, 3.0 # in atm
end
#o1os1
*xyz 0 1 
O   0.495900000  -0.722900000  -0.000000000
O   0.495900000   0.722900000   0.000000000
S  -0.991800000   0.000000000  -0.000000000
*