!pal6 b3lyp/g sv(p) opt
%ESD GSHESSIAN "BIA.hess"
TSHESSIAN "BIA_T1.hess"
DOHT TRUE
DELE 17130
END
#O=[SH]
*xyz 0 2 
O   1.217800000  -0.239200000   0.000000000
S  -0.063900000   0.520600000   0.000000000
H  -1.153900000  -0.281300000   0.000000000
*