!pal6 kdiis uhf
%mdci
NRoots 9 # Number of excited states
DoDbfilter true # Remove doubly excited states
end
#P=S
*xyz 0 1 
P  -0.389500000   0.711100000   0.000000000
S   1.502000000  -0.196700000   0.000000000
H  -1.112500000  -0.514500000   0.000000000
*