!pal6 hf def2-svp uhf tightscf pmodel
%casscf
nel 6
norb 5
mult 1,3
nroots 5,6
end
#N(hashtag)P=S
*xyz 0 1 
N   0.000000000   0.000000000   0.000000000
P  -0.000000000  -1.500000000   0.000000000
S  -0.000000000  -3.000000000   0.000000000
*