!pal6 def2-svp def2-svp/c nofrozencore tightscf
%output
Print[ P_AtCharges_M ] 1 # Print atomic charges
Print[ P_OrbCharges_M ] 1 # Print orbital charges
Print[ P_FragCharges_M] 1 # Print fragment charges
Print[ P_BondOrder_M ] 1 # Print bond orders
Print[ P_FragBondOrder_M ] 1# Print fragment b.o.
Print[ P_ReducedOrbPop_M ] 1# Print reduced orb. Charges
Print[ P_AtPopMO_M ] 1 # Print atomic charges in
# each MO
Print[ P_OrbPopMO_M ] 1 # Print orbital populaiton
# for each MO
Print[ P_ReducedOrbPopMO_M] 1 # Print reduced orbital1124 9 Detailed Documentation
# pop for each MO
Print[ P_FragPopMO_M ] 1 # Print the fragment
# population for for each MO
end
#C1(hashtag)P=P1
*xyz 0 1 
C  -0.000000000   0.939700000  -0.000000000
P  -1.161900000  -0.469800000  -0.000000000
P   1.161900000  -0.469800000   0.000000000
*