!pal6 tzvpp bohrs tightscf
%paras
R = 2.5,0.7, 30
end
#o1os1
*xyz 0 1 
O   0.495900000  -0.722900000  -0.000000000
O   0.495900000   0.722900000   0.000000000
S  -0.991800000   0.000000000  -0.000000000
*