!pal6 b3lyp def2-svp tightscf
%paras R= 1.3385
Alpha=0,180,18
end
#P(hashtag)CCl
*xyz 0 1 
P  -1.591500000   0.002800000   0.000000000
C  -0.068100000  -0.005200000   0.000000000
Cl   1.659600000   0.002400000   0.000000000
*