!pal6 cc-pvtz cc-pvtz/c
#B1=NS1
*xyz 0 1 
B  -0.794700000  -0.619900000   0.000000000
N   1.122000000  -0.199900000   0.000000000
S  -0.327400000   0.819800000   0.000000000
*