!pal6 b3lyp svp pmodel opt
%method
D3S6 1.0
D3RS6 1.094
D3S8 1.682
D3alpha6 14
end
#B(hashtag)CCl
*xyz 0 1 
B   1.963200000   0.000100000   0.000000000
C  -0.139600000  -0.000200000   0.000000000
Cl  -1.823600000   0.000100000   0.000000000
*