!pal6 b3lyp def2-tzvp tightscf
%paras DIHED = 90,270, 19
end
#B(hashtag)SCl
*xyz 0 1 
B   2.272200000  -0.005000000   0.000000000
S  -0.247900000   0.012000000   0.000000000
Cl  -2.024300000  -0.007000000   0.000000000
*