!pal6 pbe0 def2-svp tightscf cpcm(water)
%TDDFT NROOTS 5
IROOT 3
END
#[CH]=O
*xyz 0 2 
C  -0.037000000  -0.000000000   0.000000000
O   1.139000000   0.000000000   0.000000000
H  -1.102000000   0.000000000   0.000000000
*