!pal6 b3lyp def2-tzvp
#[CH]=S
*xyz 0 2 
C  -0.244400000  -0.000000000   0.000000000
S   1.553900000   0.000000000   0.000000000
H  -1.309400000   0.000000000   0.000000000
*