!pal6 dlpno-ccsd(t) def2-svp def2-svp/c
%TDDFT NROOTS 5
IROOTLIST 1,2,3
TROOTLIST 1,2,3
UPOP TRUE
END
#O
*xyz 0 1 
O   0.000000000   0.397800000   0.000000000
H   0.763500000  -0.198900000   0.000000000
H  -0.763500000  -0.198900000   0.000000000
*