!pal6 def2-tzvp conv normalprint usesym
%method
Z_Tol 1e-14
end
#[SH]
*xyz 0 2 
S   0.676600000   0.000000000   0.000000000
H  -0.676600000   0.000000000   0.000000000
*