!pal6 tightscf conv bohrs
#B(hashtag)[SH]
*xyz 0 1 
B   1.705300000  -0.003000000   0.000000000
S  -0.279300000   0.008300000   0.000000000
H  -1.426000000  -0.005200000   0.000000000
*