!pal6 tzvpp tightscf
%mdci
STol 1e-7
end
#[PH]Cl
*xyz 0 2 
P  -0.360200000   0.709200000   0.000000000
Cl   1.464400000  -0.205400000   0.000000000
H  -1.104200000  -0.503800000   0.000000000
*