!pal6 rhf 3-21g bohrs tightscf
%output
Print[ P_Mayer ] 1 # default = on
end
#o1ss1
*xyz 0 1 
O  -0.000000000  -0.859500000   0.000000000
S   1.022900000   0.429700000  -0.000000000
S  -1.022900000   0.429700000   0.000000000
*