!pal6 ri-mp2 def2-tzvpp def2/j def2-tzvpp/c tightscf rijcosx
%paras DIHED = 90,270, 19
end
#S
*xyz 0 1 
S   0.000000000   0.613300000   0.000000000
H  -0.975800000  -0.306600000   0.000000000
H   0.975800000  -0.306600000   0.000000000
*