!pal6 tightscf conv bohrs
%mp2 ewin -1.5, 1.0e3 end
#B(hashtag)SF
*xyz 0 1 
B   2.004000000   0.003800000   0.000000000
S  -0.299300000  -0.010000000   0.000000000
F  -1.704700000   0.006200000   0.000000000
*