!pal6 bp86 def2-svp
%scf brokensym 3,3 end
#[OH]
*xyz 0 2 
O   0.488900000   0.000000000   0.000000000
H  -0.488900000   0.000000000   0.000000000
*