!pal6 b3lyp def2-tzvp(-f) tightscf
%geom
ReConvCharge 1 # default is 1. Redo charge convergence scheme every N steps.
end
#[NH]Cl
*xyz 0 2 
N  -0.327100000   0.467100000   0.000000000
Cl   1.294100000  -0.132200000   0.000000000
H  -0.967000000  -0.334900000   0.000000000
*