! rks hf 6-31g* tightscf
#c1(hashtag)s(hashtag)c1
*xyz 0 1 
c   0.511400000  -0.756500000   0.000000000
s  -1.022700000   0.000000000   0.000000000
c   0.511400000   0.756500000   0.000000000
*