!uks b3lyp opt def2-tzvpp autoaux rijcosx uno uco nofinalgrid nofinalgridx d3bj defgrid3
%pal nprocs 32
end
%maxcore 7500
%scf
maxiter 500
end
#p(hashtag)[ph]
*xyz 0 2 
p   1.698000000   0.000800000   0.000000000
p  -0.147000000  -0.001800000   0.000000000
h  -1.551000000   0.001000000   0.000000000
*