! wb97x-d3 optts freq def2-tzvpp tightscf  nofinalgrid  pal8
%maxcore 4096
%geom
maxiter 200
inhess read
inhessname "poipr_neb_tsopt5.hess"
end
#clocl
*xyz 0 1 
cl   1.380700000  -0.319900000   0.000000000
o  -0.000000000   0.639800000   0.000000000
cl  -1.380700000  -0.319900000   0.000000000
*