!uks tpssh opt numfreq 6-31g(d,p) autoaux rijcosx uno uco nofinalgrid nofinalgridx d3bj defgrid3
%pal nprocs 24
end
%scf
maxiter 500
end
#[nh]cl
*xyz 0 2 
n  -0.327100000   0.467100000   0.000000000
cl   1.294100000  -0.132200000   0.000000000
h  -0.967000000  -0.334900000   0.000000000
*