! freq pbeh-3c rijcosx
%output 
xyzfile=true 
end 
%scf 
maxiter 250 
end
%output
print[p_hirshfeld] = 1
end
% maxcore
3000
%pal nprocs 16
end
#s
*xyz 0 1 
s   0.000000000   0.613300000   0.000000000
h  -0.975800000  -0.306600000   0.000000000
h   0.975800000  -0.306600000   0.000000000
*