! wb2plyp sp def2-svpd def2-tzvp/c rijcosx def2/j tightscf miniprint nomoprint nofinalgrid kdiis nososcf defgrid3
%pal nprocs 5 end
%maxcore 32000
%scf
guessmode fmatrix
maxiter 512
directresetfreq 10
diismaxeq 10
end
%cis
nroots 4
triplets true
dcorr 3
maxcore 32000
end
#s1=s=s=1
*xyz 0 1 
s  -0.719800000   0.939500000   0.000000000
s  -0.453700000  -1.093100000   0.000000000
s   1.173600000   0.153600000   0.000000000
*