! tpss d3bj def2-tzvpp def2/j kdiis
! pal8 defgrid2 xyzfile chelpg
%maxcore 8192
#s
*xyz 0 1 
s   0.000000000   0.613300000   0.000000000
h  -0.975800000  -0.306600000   0.000000000
h   0.975800000  -0.306600000   0.000000000
*