!tpss d3bj def2-tzvpp def2/jk tightopt tightscf
#c(hashtag)n
*xyz 0 1 
c  -0.031700000   0.000000000   0.000000000
n   1.128300000  -0.000000000   0.000000000
h  -1.096700000  -0.000000000   0.000000000
*