!blyp def2-tzvpp def2/jk tightscf nmr
#n(hashtag)p
*xyz 0 1 
n   0.745700000   0.000000000   0.000000000
p  -0.745700000   0.000000000   0.000000000
*