! rks hf 6-31g* tightscf
#c1=nn=1
*xyz 0 1 
c   0.000000000  -0.575700000   0.000000000
n  -0.780400000   0.287800000   0.000000000
n   0.780400000   0.287800000   0.000000000
*