! rohf def2-svp nori moread noiter
%moinp "rohf_from_restart_from_opt_feiv_bistsmp_is_tpssh_6_31gdp_nori.gbw"
%pal
nprocs 32
end
%maxcore 7500 
%loc 
locmet fb 
maxiter 128 
end
%output
print[ p_basis ] 2
print[ p_mos ] 1
end
#n(hashtag)[ph]
*xyz 0 2 
n   1.259800000   0.260200000   0.000000000
p  -0.190600000  -0.689800000   0.000000000
h  -1.069200000   0.429600000   0.000000000
*