! uks b3lyp def2-tzvp tightscf slowconv uno uco d3bj autoaux moread notrah noiter 
%moinp "3-1_b3lyp_fat_pathologic.gbw"
%pal nprocs 32
end
%maxcore 7500
%basis
newgto fe "cp(ppp)" end
newgto h "epr-iii" end
end
%method
specialgridatoms 26
specialgridintacc 7
end
#o=[sh]
*xyz 0 2 
o   1.217800000  -0.239200000   0.000000000
s  -0.063900000   0.520600000   0.000000000
h  -1.153900000  -0.281300000   0.000000000
*
%eprnmr
gtensor 1
dtensor so
nuclei = all h {aiso}
end