!uks b3lyp def2-tzvp  verytightscf  uno uco pal8 nofinalgrid d3bj def2-tzvp/c defgrid3
%scf maxiter 3000 end
%basis 
	newgto fe "cp(ppp)" end
end
%method
 specialgridatoms 26
 specialgridintacc 7
end
#[bh]cl
*xyz 0 2 
b  -0.274000000   0.445200000   0.000000000
cl   1.470800000  -0.154000000   0.000000000
h  -1.196900000  -0.291200000   0.000000000
*
%eprnmr
nuclei = all fe {fgrad, rho}
end