! freq rijcosx pbeh-3c cpcm(ch2cl2)
%cpcm
surfacetype vdw_gaussian
end
%output 
xyzfile=true 
end 
%scf 
maxiter 250 
end
%output
print[p_hirshfeld] = 1
end
% maxcore
3000
%pal nprocs 16
end
#p1=ps1
*xyz 0 1 
p  -1.092100000  -0.596600000   0.000000000
p   1.092100000  -0.596600000  -0.000000000
s  -0.000000000   1.193100000   0.000000000
*