! wb97x-d3
! def2-tzvpp
! def2/j rijcosx
! defgrid2
! scfconv7
! smallprint printgap noloewdin
! nososcf
%maxcore 8000
%output
       print[p_bondorder_m] 1
       print[p_mayer] 1
       print[p_basis] 2
end
%pal
    nprocs 5
end
#n(hashtag)p=s
*xyz 0 1 
n   0.000000000   0.000000000   0.000000000
p  -0.000000000  -1.500000000   0.000000000
s  -0.000000000  -3.000000000   0.000000000
*