!rohf def2-svp nori slowconv moread
%moinp "uhf_def2svp_from_dft_tpssh_6_31gdp_maxiter1000_moread.gbw"
%scf 
maxiter 1500
end 
%pal nprocs 32 
end
%maxcore 7500
%output
print[ p_basis ] 2
print[ p_mos ] 1
end
#[sh]
*xyz 0 2 
s   0.676600000   0.000000000   0.000000000
h  -0.676600000   0.000000000   0.000000000
*