!hf d3bj def2-tzvpp def2/jk tightopt tightscf
#o=p(hashtag)p
*xyz 0 1 
o   0.000000000   0.000000000   0.000000000
p   1.299000000   0.750000000   0.000000000
p   2.598100000   1.500000000   0.000000000
*