! optts pbe d3bj def2-svp def2/j tightscf tightopt freq nofinalgrid miniprint nomoprint defgrid3
%pal nprocs 40 end
%maxcore 4300
%geom
calc_hess true
end
#c1=c=s=1
*xyz 0 1 
c   0.538700000   0.597400000  -0.000000000
c   0.538700000  -0.597400000   0.000000000
s  -1.077400000   0.000000000  -0.000000000
*