!b97-3c irc tightscf def2/j cpcm(thf) miniprint nomoprint defgrid1 kdiis nososcf nopop float
%pal nprocs 16 end
%maxcore 2000
%irc
inithess calc_anfreq
end
#fof
*xyz 0 1 
f  -1.163100000  -0.269500000   0.000000000
o   0.000000000   0.538900000   0.000000000
f   1.163100000  -0.269500000   0.000000000
*