! uks b3lyp sp def2-svp rijcosx def2/j strongscf miniprint printbasis printmos defgrid1 kdiis nososcf float
%pal nprocs 6 end
%maxcore 2000
%scf
scfmode direct
guessmode fmatrix
maxiter 512
directresetfreq 10
diismaxeq 10
end
%cis
nroots 16
maxcore 2000
end
#[nh]f
*xyz 0 2 
n  -0.171500000   0.447300000   0.000000000
f   1.064100000  -0.164900000   0.000000000
h  -0.892600000  -0.282500000   0.000000000
*