!rks bp86 d3bj ri def2-svp def2/j tightscf nofinalgrid opt freq defgrid3
%pal nprocs 8 end
%maxcore 4000
%scf maxiter 1000 end
#c1(hashtag)s(hashtag)c1
*xyz 0 1 
c   0.511400000  -0.756500000   0.000000000
s  -1.022700000   0.000000000   0.000000000
c   0.511400000   0.756500000   0.000000000
*