!pal6 ma-zora-def2-tzvp cpcm(benzene) cpcm(octanol) mo-ccsd(t) patom fic-nevpt2 dlpno-nevpt2
%mtr
ddnc 0.9091932, 0.9723073
end
#F[PH]
*xyz 0 2 
F   1.166600000  -0.287600000   0.000000000
P  -0.108000000   0.673300000   0.000000000
H  -1.058600000  -0.385700000   0.000000000
*