!pal6 cc-pvdz-f12 cpcm(methanol)
%autoci
nroots 9
XPSORB=0,1
nroots 10
end
#C1(hashtag)SO1
*xyz 0 1 
C   0.462600000  -0.680800000  -0.000000000
S  -1.035900000   0.046800000   0.000000000
O   0.573300000   0.633900000   0.000000000
*