!pal6 cc-pvdz direct mo-qcisd allpop angs ao-ccsd largeprint
%mtr
lsteps 0, 10
RSteps 4,5
modetype normal
rsteps 10,0
end
#[OH]
*xyz 0 2 
O   0.488900000   0.000000000   0.000000000
H  -0.488900000   0.000000000   0.000000000
*