!pal6 def2-qzvpp nbo conv nonpa noautostart caspt2 keepdens patom noreadints
%md
Timestep 1.0_fs
end
#[BH]Cl
*xyz 0 2 
B  -0.274000000   0.445200000   0.000000000
Cl   1.470800000  -0.154000000   0.000000000
H  -1.196900000  -0.291200000   0.000000000
*