!pal6 dkh-tzvp bohrs dlpno-hfc1 cdouble
#FOCl
*xyz 0 1 
F  -1.209800000  -0.333500000   0.000000000
O  -0.127200000   0.580000000   0.000000000
Cl   1.337100000  -0.246500000   0.000000000
*