!pal6 aug-cc-pvtz defgrid1 tightopt hf scfconvergenceforced
%conical
METHOD UBP
ETOL 1e-4 
end
#S=[SH]
*xyz 0 2 
S   1.490600000  -0.180600000   0.000000000
S  -0.390400000   0.659200000   0.000000000
H  -1.100200000  -0.478600000   0.000000000
*