!pal6 aug-cc-pvtz/jk normalconv energy
%mm
Rigid_MM_Water false 
ORCAFFFilename "DNA_hexamer.ORCAFF.prms"
Do_NB_For_Fixed_Fixed true 
end
#O=[SH]
*xyz 0 2 
O   1.217800000  -0.239200000   0.000000000
S  -0.063900000   0.520600000   0.000000000
H  -1.153900000  -0.281300000   0.000000000
*