!pal6 cc-pwcvdz/c nodiis veryslowconv cpf/1 ri-caspt2
#N1=NS1
*xyz 0 1 
N  -0.516200000   0.620200000   0.000000000
N  -0.516200000  -0.620200000   0.000000000
S   1.032400000  -0.000000000   0.000000000
*