!pal6 cc-pcvdz-f12-mp2fit veff-soc nosplit-ri-j ri-cepa/1 uks ncpf/1
#B(hashtag)B
*xyz 0 1 
B   0.654800000   0.000000000   0.000000000
B  -0.654800000   0.000000000   0.000000000
*