!pal6 6-31g* nbo ri-somf(1x) rijcosx damp ri-dcd-cas(2)
%md
Restart IfExists
Timestep 1.0_fs
end
#O=[SH]
*xyz 0 2 
O   1.217800000  -0.239200000   0.000000000
S  -0.063900000   0.520600000   0.000000000
H  -1.153900000  -0.281300000   0.000000000
*