!pal6 ma-def2-tzvpp eom-ccsd aox-cpf/1 cpcm(dmso) lshiftb3p
#[SH]
*xyz 0 2 
S   0.676600000   0.000000000   0.000000000
H  -0.676600000   0.000000000   0.000000000
*