!pal6 cc-pvqz/c cpcm ri34-cpf/1 ri-cepa/1-f12 nosmear
%md
Timestep 0.5_fs 
end
#O=[SH]
*xyz 0 2 
O   1.217800000  -0.239200000   0.000000000
S  -0.063900000   0.520600000   0.000000000
H  -1.153900000  -0.281300000   0.000000000
*