!pal6 ma-zora-def2-tzvp diis noautostart mo-ccsd(t) uco angs nonpa
#[NH]Cl
*xyz 0 2 
N  -0.327100000   0.467100000   0.000000000
Cl   1.294100000  -0.132200000   0.000000000
H  -0.967000000  -0.334900000   0.000000000
*