!pal6 sapporo-qzp-2012 sc-nevpt2 zora mo-ncepa/1 copt ccsd(t)-f12 rks
%md
Restart IfExists
Timestep 2.0_fs
Timestep 41.3_au 
end
#F
*xyz 0 1 
F   0.493500000   0.000000000   0.000000000
H  -0.493500000   0.000000000   0.000000000
*