!pal6 dkh-def2-tzvp ncpf/1 usesym cpcm(hexane) ccsd(t)-f12/ri qcisd(t)-f12 zopt fod copt tightopt ao-qcisd(t)
%md
Initvel 300_K
Timestep 41.3_au 
Timestep 0.5_fs 
end
#[SH]
*xyz 0 2 
S   0.676600000   0.000000000   0.000000000
H  -0.676600000   0.000000000   0.000000000
*