!pal6 aug-cc-pwcvqz/c ri-somf(1x) dlpno-ccsd(t1) ri-cepa/1 ri34-cisd dlpno-ccsd(t) dlpno-hfc1 ri-caspt2
%loc
PrintLevel 3 
end
#O=PCl
*xyz 0 1 
O  -1.254200000  -0.506100000   0.000000000
P  -0.228300000   0.809600000   0.000000000
Cl   1.482500000  -0.303500000   0.000000000
*