!pal6 def2/jksmall sloppyscf looseopt keepints md
%md
Thermostat NHC 300_K Timecon 10.0_fs
end
#[OH]
*xyz 0 2 
O   0.488900000   0.000000000   0.000000000
H  -0.488900000   0.000000000   0.000000000
*