!pal6 aug-pcj-0 aox-qcisd(t) cpcm(ch2cl2) scs-mp2 loosepno amfi dlpno-hfc1 nomayer
%cis
etol 1e-10
Mode sTDA
end
#FCl
*xyz 0 1 
F   0.814300000   0.000000000   0.000000000
Cl  -0.814300000   0.000000000   0.000000000
*