!pal6 cc-pcvqz ri-dcd-cas(2) directpwp
#C1(hashtag)S(hashtag)C1
*xyz 0 1 
C   0.511400000  -0.756500000   0.000000000
S  -1.022700000   0.000000000   0.000000000
C   0.511400000   0.756500000   0.000000000
*