!pal6 zora-tzvp ri-caspt2 cpcm(ccl4) printbasis dlpno-hfc2 diis
%output
PrintLevel Debug
PrintLevel Large
PrintLevel Normal
PrintLevel Nothing
end
#ClCl
*xyz 0 1 
Cl   1.010000000   0.000000000   0.000000000
Cl  -1.010000000   0.000000000   0.000000000
*