!pal6 ma-def2-tzvp nomulliken
%mtr
lsteps 0, 10
HessName "water.hess"
ddnc 0.9091932, 0.9723073
end
#B1=S=P1
*xyz 0 1 
B  -0.419400000   0.629300000   0.000000000
S  -0.709300000  -0.530100000   0.000000000
P   1.128800000  -0.099300000   0.000000000
*