!pal6 zora-tzvpp dkh2 opt cpcm(ch2cl2) cfloatblyp
#B(hashtag)P=O
*xyz 0 1 
B   0.000000000   0.000000000   0.000000000
P  -0.000000000  -1.500000000   0.000000000
O  -0.000000000  -3.000000000   0.000000000
*