!pal6 dhf-qzvp uno nofrozencore dlpno-hfc2 sloppyscf
%autoci
citype IPROCI
XPSORB=0,1
nroots 2
RootType 0
nroots 9
end
#O=S
*xyz 0 1 
O   0.828900000   0.000000000   0.000000000
S  -0.828900000   0.000000000   0.000000000
*