!pal6 def2-qzvpd engrad uno
%mm
ORCAFFFilename "DNA_hexamer.ORCAFF.prms"
CoulombCutOff 12. 
end
#[PH2]
*xyz 0 2 
P  -0.000000000   0.641500000   0.000000000
H   1.048300000  -0.320800000   0.000000000
H  -1.048300000  -0.320800000   0.000000000
*