!pal6 x2c-qzvpall dlpno-hfc2 zeff-soc veff-soc
%qmmm
NUnitCellAtoms 13
end
#N1=P(hashtag)S1
*xyz 0 1 
N  -0.023600000   0.887900000   0.000000000
P   1.068700000  -0.429100000   0.000000000
S  -1.045100000  -0.458800000   0.000000000
*