!pal6 may-cc-pv(t+d)z nori nodiis nofrozencore
%method
D3S6 0.64
NewNCore Ti 8 end
UseQGradFit true 
end
#C1(hashtag)CO1
*xyz 0 1 
C  -0.401300000  -0.594700000   0.000000000
C  -0.401300000   0.594700000   0.000000000
O   0.802600000  -0.000000000   0.000000000
*