!pal6 cc-pwcvtz/c kdiisri-scs-b2gp-plyp21
#O
*xyz 0 1 
O   0.000000000   0.397800000   0.000000000
H   0.763500000  -0.198900000   0.000000000
H  -0.763500000  -0.198900000   0.000000000
*