!pal6 cc-pvqz-dk ao-ncpf/1 cpcm defgrid1 ioramm/ri fic-nevpt2 nomulliken
#O
*xyz 0 1 
O   0.000000000   0.397800000   0.000000000
H   0.763500000  -0.198900000   0.000000000
H  -0.763500000  -0.198900000   0.000000000
*