!pal6 cc-pvtz-dk aox-ncepa/1 ao-ccsd
%output
PrintLevel Small
Print[ P_Mulliken ] 1 
end
#N(hashtag)P=S
*xyz 0 1 
N   0.000000000   0.000000000   0.000000000
P  -0.000000000  -1.500000000   0.000000000
S  -0.000000000  -3.000000000   0.000000000
*