!pal6 aug-cc-pvqz/c cpcm(hexane) aox-ncpf/1 ao-ccsd
#O=C=S
*xyz 0 1 
O  -1.383400000  -0.000000000   0.000000000
C  -0.207400000   0.000000000   0.000000000
S   1.590900000  -0.000000000   0.000000000
*