!pal6 dhf-svp cfloat
#N(hashtag)N
*xyz 0 1 
N   0.730000000   0.000000000   0.000000000
N  -0.730000000   0.000000000   0.000000000
*