!pal6 def2/j nodiis scs-mp3 soscf
#S
*xyz 0 1 
S   0.000000000   0.613300000   0.000000000
H  -0.975800000  -0.306600000   0.000000000
H   0.975800000  -0.306600000   0.000000000
*