!pal6 ma-def2-sv(p) allowrhf sp
%method
Z_IntAccXC 3.467
NewNCore Li 2 end
end
#B(hashtag)[PH]
*xyz 0 2 
B   2.115400000   0.003500000   0.000000000
P  -0.380900000  -0.009900000   0.000000000
H  -1.734400000   0.006400000   0.000000000
*