!pal6 ma-def2-qzvpp direct ri-dcd-cas(2) ri-nevpt2 noiter uhf
%mtr
HessName "ethene.hess"
RSteps 4,5
modetype normal
end
#[H][H]
*xyz 0 1 
H   0.349900000   0.000000000   0.000000000
H  -0.349900000   0.000000000   0.000000000
*