!pal6 dhf-tzvpp cpcm(ch2cl2) nosmear kdiis nousesym
%mtr
EnStep 0.001, 0.001 
lsteps 0, 10
modetype normal
end
#B(hashtag)[PH]
*xyz 0 2 
B   2.115400000   0.003500000   0.000000000
P  -0.380900000  -0.009900000   0.000000000
H  -1.734400000   0.006400000   0.000000000
*