!pal6 cc-pv6z/c iora/ri
%output
PrintLevel Normal
PrintLevel Large
PrintLevel Nothing
Print[ P_Mulliken ] 1 
end
#B(hashtag)N
*xyz 0 1 
B   0.425800000   0.000000000   0.000000000
N  -0.425800000   0.000000000   0.000000000
*