!pal6 dhf-tzvpp pmodel anfreq cpcm(acetone) aox-qcisd(t)
%md
Timestep 41.3_au 
end
#[OH]
*xyz 0 2 
O   0.488900000   0.000000000   0.000000000
H  -0.488900000   0.000000000   0.000000000
*