!pal6 ma-zora-def2-tzvp largeprint ao-qcisd cepa/1 trah iora/ri mo-ccsd(t)
%nbo
nbokeylist=" $nbo nbo npa aonbo=c archive $end"
end
#O=[SH]
*xyz 0 2 
O   1.217800000  -0.239200000   0.000000000
S  -0.063900000   0.520600000   0.000000000
H  -1.153900000  -0.281300000   0.000000000
*