!pal6 aug-cc-pwcv5z/c cpcm(chloroform) aox-ncpf/1 cpcm(dmso) hf nopropfile
%cis
Mode sTDA
EWin -3,3 
etol 1e-10
TPrint 0.0001 
end
#FCl
*xyz 0 1 
F   0.814300000   0.000000000   0.000000000
Cl  -0.814300000   0.000000000   0.000000000
*