!pal6 pcseg-1 noprintmos dlpno-hfc1 gdiis-copt
#B1=S=B1
*xyz 0 1 
B  -0.815300000  -0.389400000   0.000000000
S  -0.106300000   0.658000000   0.000000000
B   0.921600000  -0.268600000   0.000000000
*