!pal6 tightscf sto-3g steom-ccsd rhf autoaux
%scf ConvForced true end
%mdci
nroots 9
doDbFilter true
doTriplet true
locRandom 0
end
#C1(hashtag)SO1
*xyz 0 1 
C   0.462600000  -0.680800000  -0.000000000
S  -1.035900000   0.046800000   0.000000000
O   0.573300000   0.633900000   0.000000000
*