!pal6 tightscf x2c-svpall-s ao-qcisd(t) uhf uno autoaux
%scf ConvForced true end
%mdci
locRandom 0
density linearized
UseQROs true
end
#[SH]
*xyz 0 2 
S   0.676600000   0.000000000   0.000000000
H  -0.676600000   0.000000000   0.000000000
*