!pal6 pcsseg-1 rhf dlpno-scs-mp2 strongscf loosepno autoaux numfreq defgrid3 engrad autoaux
%scf ConvForced true end
%mp2 Density relaxed end
%freq
CentralDiff false
end
#OF
*xyz 0 1 
O  -0.207900000   0.422000000   0.000000000
F   1.090500000  -0.144300000   0.000000000
H  -0.882600000  -0.277700000   0.000000000
*