!pal6 tightscf cc-pcvtz-f12-optri scanfunc defgrid3 d2

#N(hashtag)CF
*xyz 0 1 
N  -1.221000000  -0.000000000   0.000000000
C  -0.061000000   0.000000000   0.000000000
F   1.282000000  -0.000000000   0.000000000
*