!pal6 def2-tzvpp rhf anfreq defgrid3 autoaux
%freq
Hess2ElFlags 1,1,1,1
end
#O=P
*xyz 0 1 
O   1.215600000  -0.273200000   0.000000000
P  -0.151800000   0.682800000   0.000000000
H  -1.063800000  -0.409600000   0.000000000
*