!pal6 tightscf ano-pvqz vwn3 defgrid3 rhf
%tddft
nroots 9
end
%scf convforced true end
#S1=S=S=1
*xyz 0 1 
S  -0.719800000   0.939500000   0.000000000
S  -0.453700000  -1.093100000   0.000000000
S   1.173600000   0.153600000   0.000000000
*