!pal6 tightscf aug-cc-pcvtz vwn3 nofinalgridx rhf d4
%method
   D4s6 0.61
   D4s8 0
   D4a1 0
   D4a2 6.2
end
#B1=PO1
*xyz 0 1 
B  -1.160300000  -0.319200000   0.000000000
P   1.356800000  -0.198100000   0.000000000
O  -0.196500000   0.517300000   0.000000000
*