!pal6 x2c-sv(p)all rhf rijdx autoaux copt tightopt noautostart

#B1=BS1
*xyz 0 1 
B   1.428300000  -0.005000000   0.000000000
B  -0.706100000   0.660500000   0.000000000
S  -0.722300000  -0.655500000   0.000000000
*