!pal6 aug-pcsseg-0 uhf ri-jk autoaux autoaux

#[SH]
*xyz 0 2 
S   0.676600000   0.000000000   0.000000000
H  -0.676600000   0.000000000   0.000000000
*