!pal6 cpcm(dmso) aug-cc-pvdz rhf rijcosx autoaux copt verytightopt noautostart

#N(hashtag)SF
*xyz 0 1 
N  -1.284000000   0.329800000   0.000000000
S   0.071500000  -0.721600000   0.000000000
F   1.212500000   0.391800000   0.000000000
*