!pal6 aug-pcseg-3 uhf rijonx sloppyscf autoaux cc-pvtz-f12-optri gdiis-copt tightopt noautostart numfreq defgrid3 engrad autoaux
%scf ConvForced true end

%freq
CentralDiff false
end
#[BH2]
*xyz 0 2 
B  -0.001200000   0.386800000   0.000000000
H  -1.019500000  -0.193700000   0.000000000
H   1.020700000  -0.193000000   0.000000000
*