!pal6 6-31g(d,p) uhf rijonx scfconv7 autoaux gdiis-opt tightopt noautostart numfreq defgrid3 engrad autoaux
%scf ConvForced true end
%geom
Scan
B 0 1 = 1.18, 2.35, 5
end
end
%freq
CentralDiff false
end
#[CH]=O
*xyz 0 2 
C  -0.037000000  -0.000000000   0.000000000
O   1.139000000   0.000000000   0.000000000
H  -1.102000000   0.000000000   0.000000000
*