!pal6 tightscf x2c-qzvpall-s ri-qcisd(t) rhf autoaux opt tightopt noautostart numgrad
%scf ConvForced true end
%mdci
locRandom 0
end
%geom
Scan
B 0 2 = 1.45, 2.91, 5
end
Constraints
{B 0 1 1.71 C}
{B 0 2 1.45 C}
{B 1 2 1.71 C}
end
end
#N1=S=N1
*xyz 0 1 
N  -0.517100000   0.727400000   0.000000000
S   1.034200000   0.000000000  -0.000000000
N  -0.517100000  -0.727400000   0.000000000
*