!pal6 tightscf 6-311g(d,p) ri-pbe0-dh nofinalgridx rhf autoaux
%tddft
nroots 9
upop true
dcorr 1
tda true
end
%scf convforced true end
#N=S
*xyz 0 1 
N  -0.321600000   0.466600000   0.000000000
S   1.285600000  -0.133300000   0.000000000
H  -0.964000000  -0.333400000   0.000000000
*