!pal6 tightscf 6-31+g** b97m-d3bj ri nocosx opt normalopt noautostart
%scf AutoTRAH false end
%geom
Scan
B 0 2 = 1.51, 3.03, 5
end
Constraints
{B 0 1 1.96 C}
{B 0 2 1.51 C}
{B 1 2 1.77 C}
end
end
#B1=NS1
*xyz 0 1 
B  -0.794700000  -0.619900000   0.000000000
N   1.122000000  -0.199900000   0.000000000
S  -0.327400000   0.819800000   0.000000000
*