!pal6 tightscf pc-0 b97m-d4 ri defgrid2
%scf AutoTRAH false end
#N(hashtag)P=S
*xyz 0 1 
N   0.000000000   0.000000000   0.000000000
P  -0.000000000  -1.500000000   0.000000000
S  -0.000000000  -3.000000000   0.000000000
*