!pal6 x2c-qzvpall-s rhf rijonx autoaux

#O
*xyz 0 1 
O   0.000000000   0.397800000   0.000000000
H   0.763500000  -0.198900000   0.000000000
H  -0.763500000  -0.198900000   0.000000000
*