!pal6 aug-pc-3 uhf rijcosx loosescf autoaux
%scf ConvForced true end
#[PH2]
*xyz 0 2 
P  -0.000000000   0.641500000   0.000000000
H   1.048300000  -0.320800000   0.000000000
H  -1.048300000  -0.320800000   0.000000000
*