!pal6 cpcm tightscf cc-pvqz-dk ri-rsx-0dh defgrid3 uhf autoaux gdiis-opt tightopt noautostart
%geom
Scan
B 0 1 = 1.35, 2.71, 5
end
end
#[SH]
*xyz 0 2 
S   0.676600000   0.000000000   0.000000000
H  -0.676600000   0.000000000   0.000000000
*