!def2-tzvpp pbe0-dh/d opt engrad uhf uno defgrid3 rijonx defrec j3 tightscf bp autoaux
%method nlb 5.0 end
%scf autotrah false end
#[nh]f
#O
*xyz 0 1 
O   0.000000000   0.397800000   0.000000000
H   0.763500000  -0.198900000   0.000000000
H  -0.763500000  -0.198900000   0.000000000
*