!pal6 aug-cc-pv6z/c ao-qcisd(t) mo-ccsd ao-ccsd
%autoci
nroots 2
end
#Cl
*xyz 0 1 
Cl   0.692300000   0.000000000   0.000000000
H  -0.692300000   0.000000000   0.000000000
*