!pal6 4-22gsp ri34-ncepa/1 nocheapints dlpno-hfc1 moread xyzfile reducedpop printbasis rhf
%md
Timestep 2.0_fs
Timestep 41.3_au 
end
#B(hashtag)S(hashtag)P
*xyz 0 1 
B   2.073800000   0.000800000   0.000000000
S  -0.211400000  -0.002000000   0.000000000
P  -1.862500000   0.001200000   0.000000000
*