!pal6 cc-pvdz-f12-optri ri-cpf/1 mo-ncepa/1
#FF
*xyz 0 1 
F   0.740000000   0.000000000   0.000000000
F  -0.740000000   0.000000000   0.000000000
*