!pal6 jul-cc-pv(t+d)z veff-soc cpcm(cyclohexane)
#[OH]
*xyz 0 2 
O   0.488900000   0.000000000   0.000000000
H  -0.488900000   0.000000000   0.000000000
*