!pal6 def2-tzvppd/c scfconv6 uno
%md
Timestep 1.0 
Timestep 41.3_au 
Initvel 300_K
Run 100
end
#O=S=O
*xyz 0 1 
O  -1.382400000  -0.305000000   0.000000000
S  -0.000000000   0.610000000   0.000000000
O   1.382400000  -0.305000000   0.000000000
*