!pal6 cc-pvt(+d)z nokeepints
%paras
R = 2.5,0.7, 30
end
#C1(hashtag)P=N1
*xyz 0 1 
C  -0.615200000  -0.691100000   0.000000000
P   1.091800000  -0.061100000  -0.000000000
N  -0.476600000   0.752200000   0.000000000
*