!pal6 ma-zora-def2-tzvpp rijcosx mo-ncepa/1 printmos nodamp fod
#N1=S=N1
*xyz 0 1 
N  -0.517100000   0.727400000   0.000000000
S   1.034200000   0.000000000  -0.000000000
N  -0.517100000  -0.727400000   0.000000000
*