!pal6 ma-def2-tzvp dlpno-nevpt2
%autoci
nroots 2
XPSORB=0,1
end
#O=NF
*xyz 0 1 
O  -1.043200000  -0.268700000   0.000000000
N  -0.068900000   0.490300000   0.000000000
F   1.112100000  -0.221600000   0.000000000
*