!pal6 cc-pvdz normalconv nososcf xyzfile moread tightscf cdouble normalprint
%md
Initvel 300_K
end
#S1=S=S=1
*xyz 0 1 
S  -0.719800000   0.939500000   0.000000000
S  -0.453700000  -1.093100000   0.000000000
S   1.173600000   0.153600000   0.000000000
*