!pal6 cc-pvqz-dk strongscf
%mtr
ddnc 0.9091932, 0.9723073
modetype normal
end
#FP=S
*xyz 0 1 
F  -1.214500000  -0.523100000   0.000000000
P  -0.301300000   0.786000000   0.000000000
S   1.515800000  -0.262900000   0.000000000
*