!pal6 ma-zora-def2-tzvp(-f) nolshift
#O=S=S
*xyz 0 1 
O  -1.459800000  -0.393800000   0.000000000
S  -0.186300000   0.667600000   0.000000000
S   1.646100000  -0.273700000   0.000000000
*