!pal6 zora-def2-tzvp(-f) qcisd
%method
functional hyb_gga_xc_b3lyp
NewNCore Ti 8 end
end
#[SH]
*xyz 0 2 
S   0.676600000   0.000000000   0.000000000
H  -0.676600000   0.000000000   0.000000000
*