!pal6 def2-tzvpd allowrhf ao-ccsd(t)
%cpcm
surfacetype gepol_sas
CPCMccm 2
surfacetype gepol_ses
surfacetype gepol_ses_gaussian
end
#[PH]Cl
*xyz 0 2 
P  -0.360200000   0.709200000   0.000000000
Cl   1.464400000  -0.205400000   0.000000000
H  -1.104200000  -0.503800000   0.000000000
*