!pal6 zora-def2-sv(p) double scfconv6 easyconv
%cis
TPrint 0.0001 
end
#FOF
*xyz 0 1 
F  -1.163100000  -0.269500000   0.000000000
O   0.000000000   0.538900000   0.000000000
F   1.163100000  -0.269500000   0.000000000
*