!pal6 dkh-tzvp ao-ncpf/1 split-ri-jpw91
%autoci
nroots 2
RootType 0
citype IPROCI
nroots 10
nroots 9
end
#FC(hashtag)P
*xyz 0 1 
F  -1.386900000   0.003500000   0.000000000
C  -0.069200000  -0.006400000   0.000000000
P   1.456100000   0.003000000   0.000000000
*