!pal6 cc-pcvqz-f12-optri aox-ncpf/1 conv
%cis
Mode sTDA
EWin -3,3 
OrbWin[0] = 2,-1,-1,14 
etol 1e-10
end
#N1=PS1
*xyz 0 1 
N  -0.023600000   0.887900000   0.000000000
P   1.068700000  -0.429100000   0.000000000
S  -1.045100000  -0.458800000   0.000000000
*