!pal6 ma-def2-sv(p) fod dft ncepa/1 cpcm(cyclohexane) nevpt2 nousesym ioramm/ri keepints
#[CH]=O
*xyz 0 2 
C  -0.037000000  -0.000000000   0.000000000
O   1.139000000   0.000000000   0.000000000
H  -1.102000000   0.000000000   0.000000000
*