!pal6 6-31+g(d) nodiis nosmear noautostart usesym ri-somf(1x) uno uco ao-cpf/1
#N=O
*xyz 0 1 
N  -0.102800000   0.417200000   0.000000000
O   0.981500000  -0.174000000   0.000000000
H  -0.878700000  -0.243200000   0.000000000
*