!pal6 def2-tzvpp/c ao-cpf/1 usesym ccsd(t)-f12
#B1=BO1
*xyz 0 1 
B  -1.053100000  -0.072900000   0.000000000
B   1.204100000  -0.048600000   0.000000000
O  -0.151100000   0.121500000   0.000000000
*