!pal6 aug-cc-pv5z/c npa convm06l
#S=S=S
*xyz 0 1 
S   1.633100000  -0.418500000   0.000000000
S  -0.000000000   0.837000000   0.000000000
S  -1.633100000  -0.418500000   0.000000000
*