!pal6 maug-cc-pv(t+d)z xyzfile
%elprop
Solver Pople 
end
#O=C=O
*xyz 0 1 
O  -1.405000000  -0.000000000   0.000000000
C  -0.000000000   0.000000000   0.000000000
O   1.405000000  -0.000000000   0.000000000
*