!pal6 def2-tzvpd/c nolshift
%mdci
DTol 1e-10
nroots 3
end
#[CH]=S
*xyz 0 2 
C  -0.244400000  -0.000000000   0.000000000
S   1.553900000   0.000000000   0.000000000
H  -1.309400000   0.000000000   0.000000000
*