!pal6 cc-pv6z/c dlpno-ccsd lpno-ncepa/1
#ClSCl
*xyz 0 1 
Cl   1.531700000  -0.444600000   0.000000000
S  -0.000000000   0.889200000   0.000000000
Cl  -1.531700000  -0.444600000   0.000000000
*