!pal6 aug-cc-pv6z/c cpcm
#O=O
*xyz 0 1 
O   0.570800000   0.000000000   0.000000000
O  -0.570800000   0.000000000   0.000000000
*