!pal6 ma-def2-tzvp(-f) ri-somf(1x) nosplit-ri-j
%cis
TPrint 0.0001 
etol 1e-10
OrbWin[0] = 2,-1,-1,14 
Ethresh 10.0
nroots 1
end
#[NH2]
*xyz 0 2 
N  -0.000000000   0.400600000   0.000000000
H  -0.831600000  -0.200300000   0.000000000
H   0.831600000  -0.200300000   0.000000000
*