!b3lyp def2-svp tightscf

#N1=NO1
*xyz 0 1 
N   0.415600000   0.621400000   0.000000000
N   0.415600000  -0.621400000  -0.000000000
O  -0.831300000   0.000000000  -0.000000000
*