!cc-pvtz bohrs
%paras rCO = 1.20
ACOH = 120
rCH = 1.08
end
#B1=C=P1
*xyz 0 1 
B  -0.207600000   0.528400000   0.000000000
C  -0.772400000  -0.358100000   0.000000000
P   0.980000000  -0.170300000   0.000000000
*