!def2-svp def2/jk
%mp2 MaxCore 100
end
#N=O
*xyz 0 1 
N  -0.102800000   0.417200000   0.000000000
O   0.981500000  -0.174000000   0.000000000
H  -0.878700000  -0.243200000   0.000000000
*