!rhf def2-svp extremescf

#F
*xyz 0 1 
F   0.493500000   0.000000000   0.000000000
H  -0.493500000   0.000000000   0.000000000
*