!def2-tzvp def2/jk rijk nososcf nopop

#FC(hashtag)P
*xyz 0 1 
F  -1.386900000   0.003500000   0.000000000
C  -0.069200000  -0.006400000   0.000000000
P   1.456100000   0.003000000   0.000000000
*