!def2-svp opt
%eprnmr gtensor 1 end
#P1=S=P1
*xyz 0 1 
P  -1.092100000  -0.596600000  -0.000000000
S   0.000000000   1.193100000  -0.000000000
P   1.092100000  -0.596600000   0.000000000
*