!pal6 svp tightscf
#N1=PO1
*xyz 0 1 
N  -0.617400000   0.652900000  -0.000000000
P   1.023800000   0.096300000   0.000000000
O  -0.406500000  -0.749200000   0.000000000
*