!rhf tzvp tightscf

#B1=S=N1
*xyz 0 1 
B  -0.122500000   0.406300000   0.000000000
S  -0.781300000  -0.247500000   0.000000000
N   0.903700000  -0.158900000   0.000000000
*