!hf def2-svp def2-tzvpp/c verytightscf nopop

#B=S
*xyz 0 1 
B  -0.044900000  -0.269700000   0.000000000
S   1.670600000   0.129300000   0.000000000
H  -1.625700000   0.140400000   0.000000000
*