!pal6 def2-tzvp def2/jk rijk
%base "1"
%mp2 density relaxed
donatorbs true
end
#B(hashtag)C
*xyz 0 1 
B   1.662100000  -0.000700000   0.000000000
C  -0.313300000   0.001900000   0.000000000
H  -1.348900000  -0.001300000   0.000000000
*