!hf def2-svp uhf tightscf pmodel
%mdci
DoSingularPT true
SingularPTThresh 0.05
MaxIter 50
end
#OF
*xyz 0 1 
O  -0.207900000   0.422000000   0.000000000
F   1.090500000  -0.144300000   0.000000000
H  -0.882600000  -0.277700000   0.000000000
*