!ano-pvdz conv tightscf

#B(hashtag)CCl
*xyz 0 1 
B   1.963200000   0.000100000   0.000000000
C  -0.139600000  -0.000200000   0.000000000
Cl  -1.823600000   0.000100000   0.000000000
*