!def2-tzvp
%eprnmr gtensor 1 end
#ClOCl
*xyz 0 1 
Cl   1.380700000  -0.319900000   0.000000000
O  -0.000000000   0.639800000   0.000000000
Cl  -1.380700000  -0.319900000   0.000000000
*