!pal6 opt
%pal nprocs 4 # any number (positive integer)
end
#C(hashtag)N
*xyz 0 1 
C  -0.031700000   0.000000000   0.000000000
N   1.128300000  -0.000000000   0.000000000
H  -1.096700000  -0.000000000   0.000000000
*