!bp86 def2-svp
%tddft OrbWin[0] = 0,0,-1,-1
NRoots 25
DoQuad true
end
#O=C=O
*xyz 0 1 
O  -1.405000000  -0.000000000   0.000000000
C  -0.000000000   0.000000000   0.000000000
O   1.405000000  -0.000000000   0.000000000
*