!def2-tzvp verytightscf
%freq QuasiRRHO false
CutOffFreq 35
end
#C1=S=S=1
*xyz 0 1 
C   0.000000000  -0.840100000  -0.000000000
S  -1.106400000   0.420100000  -0.000000000
S   1.106400000   0.420100000  -0.000000000
*