!def2-tzvp conv normalprint usesym
%casscf nel 7
norb 6
nroots 3
end
#[OH]
*xyz 0 2 
O   0.488900000   0.000000000   0.000000000
H  -0.488900000   0.000000000   0.000000000
*