!bp86 ma-def2-svp tightscf
%rocis NRoots 6
DoQuad true #invokes calculation of electric
#quadrupole and magnetic dipole
#magnetic quadrupole and electric octupole contributions
DoCD true #invokes the calculation of the CD
#spectrum
end
#[NH2]
*xyz 0 2 
N  -0.000000000   0.400600000   0.000000000
H  -0.831600000  -0.200300000   0.000000000
H   0.831600000  -0.200300000   0.000000000
*