!b3lyp tzvp opt slowconv

#S=S
*xyz 0 1 
S   1.030000000   0.000000000   0.000000000
S  -1.030000000   0.000000000   0.000000000
*