!def2-svp nofrozencore patom
%base "BO-CCSD"
%mdci density unrelaxed end
#[OH]
*xyz 0 2 
O   0.488900000   0.000000000   0.000000000
H  -0.488900000   0.000000000   0.000000000
*