!strongscf verytightscf

#O=PCl
*xyz 0 1 
O  -1.254200000  -0.506100000   0.000000000
P  -0.228300000   0.809600000   0.000000000
Cl   1.482500000  -0.303500000   0.000000000
*