!bp86 def2-svp
%mm
Do_NB_For_Fixed_Fixed true # Compute MM-MM nonbonded interaction also for
# non-active atom pairs. Default true.
end
#N1=PS1
*xyz 0 1 
N  -0.023600000   0.887900000   0.000000000
P   1.068700000  -0.429100000   0.000000000
S  -1.045100000  -0.458800000   0.000000000
*