!pal6 def2-tzvp conv normalprint usesym
%casscf nel 7
norb 6
nroots 3
end
#[PH2]
*xyz 0 2 
P  -0.000000000   0.641500000   0.000000000
H   1.048300000  -0.320800000   0.000000000
H  -1.048300000  -0.320800000   0.000000000
*