!ccsd def2-svp
%scf SmearTemp 5000 # ``temperature'' in Kelvin
end
#C1=PP=1
*xyz 0 1 
C   0.000000000   0.939700000   0.000000000
P   1.161900000  -0.469800000  -0.000000000
P  -1.161900000  -0.469800000  -0.000000000
*