!pbe0 def2-svp tightscf

#[NH]F
*xyz 0 2 
N  -0.171500000   0.447300000   0.000000000
F   1.064100000  -0.164900000   0.000000000
H  -0.892600000  -0.282500000   0.000000000
*