!tzvp tightscf
%CONICAL
METHOD GP_NONACME
END
#F[PH]
*xyz 0 2 
F   1.166600000  -0.287600000   0.000000000
P  -0.108000000   0.673300000   0.000000000
H  -1.058600000  -0.385700000   0.000000000
*