!hf def2-svp mulliken loewdin mayer reducedpop

#C1=PP=1
*xyz 0 1 
C   0.000000000   0.939700000   0.000000000
P   1.161900000  -0.469800000  -0.000000000
P  -1.161900000  -0.469800000  -0.000000000
*